====================================================================================================================
File name: 200_10_84_9.def
Creation date: Mon Nov 24 20:40:30 CET 2014
Website: http://imopse.ii.pwr.edu.pl/
Reference:
Myszkowski P. B., Skowronski M. E., Olech L., Oslizlo K.,
Hybrid Ant Colony Optimization in solving Multi-Skill Resource-Constrained Project Scheduling Problem,
Soft Computing, DOI: DOI 10.1007/s00500-014-1455-x
====================================================================================================================
General characteristics:
Tasks: 200
Resources: 10
Precedence relations: 84
Number of skill types: 9
====================================================================================================================
ResourceID 	 Salary 	 Skills
1	 	 	22.8	 	 Q2: 1 	  Q8: 1 	  Q0: 2 	  Q4: 1 	  Q5: 0 	  Q7: 1
2	 	 	32.6	 	 Q8: 1 	  Q2: 2 	  Q4: 2 	  Q3: 2 	  Q0: 1 	  Q5: 0
3	 	 	47.4	 	 Q1: 0 	  Q3: 0 	  Q0: 2 	  Q2: 2 	  Q4: 1 	  Q6: 2
4	 	 	45.6	 	 Q2: 2 	  Q7: 1 	  Q3: 0 	  Q1: 0 	  Q4: 2 	  Q8: 1
5	 	 	27.3	 	 Q1: 1 	  Q4: 1 	  Q6: 1 	  Q3: 2 	  Q2: 0 	  Q7: 0
6	 	 	16.6	 	 Q7: 2 	  Q4: 0 	  Q1: 0 	  Q2: 1 	  Q5: 2 	  Q0: 1
7	 	 	97.6	 	 Q2: 2 	  Q1: 2 	  Q4: 2 	  Q5: 1 	  Q6: 0 	  Q7: 2
8	 	 	35.3	 	 Q0: 0 	  Q7: 2 	  Q8: 1 	  Q1: 0 	  Q5: 2 	  Q6: 2
9	 	 	60.9	 	 Q5: 0 	  Q7: 1 	  Q1: 0 	  Q2: 2 	  Q3: 2 	  Q4: 2
10	 	 	66.3	 	 Q3: 1 	  Q5: 2 	  Q7: 2 	  Q0: 2 	  Q4: 1 	  Q1: 0
====================================================================================================================
TaskID 	 Duration 	 Skill 	 Predecessor IDs
1	 	 	20	 Q0: 1
2	 	 	13	 Q7: 2
3	 	 	40	 Q3: 2
4	 	 	23	 Q3: 2
5	 	 	28	 Q2: 2
6	 	 	31	 Q4: 2
7	 	 	21	 Q2: 2
8	 	 	34	 Q3: 1
9	 	 	35	 Q6: 1
10	 	 	35	 Q3: 1
11	 	 	18	 Q0: 0
12	 	 	34	 Q4: 0
13	 	 	24	 Q6: 2
14	 	 	8	 Q1: 1
15	 	 	23	 Q6: 1
16	 	 	28	 Q7: 0
17	 	 	36	 Q7: 0
18	 	 	26	 Q3: 0
19	 	 	28	 Q0: 1
20	 	 	28	 Q2: 1	 	16
21	 	 	14	 Q0: 0
22	 	 	11	 Q0: 0
23	 	 	40	 Q3: 0
24	 	 	9	 Q0: 2
25	 	 	26	 Q7: 1
26	 	 	34	 Q7: 1
27	 	 	19	 Q0: 2	 	5
28	 	 	34	 Q5: 0
29	 	 	16	 Q2: 2
30	 	 	12	 Q0: 0
31	 	 	28	 Q1: 0
32	 	 	26	 Q8: 1
33	 	 	18	 Q0: 0
34	 	 	9	 Q6: 2
35	 	 	18	 Q2: 0
36	 	 	33	 Q7: 1
37	 	 	20	 Q4: 0
38	 	 	39	 Q5: 1
39	 	 	36	 Q4: 0	 	25
40	 	 	26	 Q4: 2
41	 	 	37	 Q3: 2	 	25
42	 	 	36	 Q1: 0
43	 	 	13	 Q7: 1
44	 	 	21	 Q1: 1
45	 	 	26	 Q2: 2
46	 	 	34	 Q6: 2
47	 	 	39	 Q5: 2
48	 	 	24	 Q4: 1
49	 	 	40	 Q6: 0
50	 	 	11	 Q0: 1
51	 	 	27	 Q0: 0
52	 	 	26	 Q2: 2
53	 	 	17	 Q7: 2
54	 	 	35	 Q7: 1
55	 	 	14	 Q6: 0
56	 	 	21	 Q7: 2
57	 	 	11	 Q8: 1	 	46
58	 	 	27	 Q7: 1
59	 	 	26	 Q2: 1
60	 	 	38	 Q5: 0	 	54
61	 	 	26	 Q5: 1
62	 	 	28	 Q5: 2
63	 	 	32	 Q7: 2
64	 	 	12	 Q1: 2
65	 	 	19	 Q4: 1
66	 	 	22	 Q5: 1
67	 	 	25	 Q1: 1
68	 	 	24	 Q3: 0
69	 	 	26	 Q0: 0
70	 	 	35	 Q2: 2
71	 	 	15	 Q4: 1
72	 	 	29	 Q1: 0
73	 	 	29	 Q8: 1
74	 	 	35	 Q2: 1	 	9	10
75	 	 	12	 Q3: 0	 	42	58
76	 	 	12	 Q2: 1
77	 	 	29	 Q1: 1	 	52	17
78	 	 	34	 Q5: 2
79	 	 	38	 Q2: 1
80	 	 	13	 Q7: 0
81	 	 	17	 Q2: 2	 	32
82	 	 	16	 Q6: 1
83	 	 	30	 Q7: 0
84	 	 	36	 Q2: 2
85	 	 	29	 Q2: 0
86	 	 	38	 Q4: 0	 	5
87	 	 	38	 Q0: 1
88	 	 	37	 Q1: 2
89	 	 	31	 Q3: 2	 	14
90	 	 	36	 Q6: 1	 	71	33
91	 	 	19	 Q0: 0	 	88	21
92	 	 	36	 Q1: 2	 	76
93	 	 	16	 Q7: 2	 	9
94	 	 	22	 Q4: 2	 	39
95	 	 	19	 Q6: 2
96	 	 	24	 Q0: 2	 	41
97	 	 	9	 Q1: 1
98	 	 	25	 Q6: 1
99	 	 	31	 Q2: 2
100	 	 	21	 Q6: 0
101	 	 	39	 Q2: 2
102	 	 	32	 Q2: 0
103	 	 	19	 Q6: 2
104	 	 	11	 Q0: 0
105	 	 	10	 Q5: 1	 	28
106	 	 	10	 Q0: 1	 	92
107	 	 	24	 Q4: 1
108	 	 	13	 Q0: 2	 	51
109	 	 	17	 Q5: 2	 	17
110	 	 	16	 Q4: 2
111	 	 	39	 Q7: 2	 	82	22
112	 	 	22	 Q6: 0
113	 	 	23	 Q2: 1	 	19
114	 	 	31	 Q5: 0
115	 	 	15	 Q7: 2
116	 	 	14	 Q4: 1	 	14
117	 	 	26	 Q3: 0	 	79
118	 	 	32	 Q4: 0
119	 	 	29	 Q4: 1
120	 	 	40	 Q5: 2
121	 	 	36	 Q6: 1
122	 	 	33	 Q7: 1
123	 	 	18	 Q0: 1	 	7	110
124	 	 	24	 Q6: 2
125	 	 	13	 Q3: 1
126	 	 	22	 Q2: 2
127	 	 	38	 Q4: 1
128	 	 	18	 Q0: 1
129	 	 	11	 Q2: 1	 	85
130	 	 	37	 Q2: 2
131	 	 	11	 Q4: 1
132	 	 	20	 Q4: 2
133	 	 	19	 Q5: 2
134	 	 	39	 Q7: 0	 	46
135	 	 	9	 Q1: 1	 	91
136	 	 	31	 Q2: 1	 	113
137	 	 	18	 Q4: 0
138	 	 	35	 Q4: 0
139	 	 	11	 Q0: 0
140	 	 	16	 Q6: 2
141	 	 	29	 Q5: 2	 	96
142	 	 	38	 Q5: 0	 	136
143	 	 	40	 Q3: 1
144	 	 	34	 Q1: 0
145	 	 	15	 Q2: 1	 	4	63
146	 	 	40	 Q0: 0	 	50
147	 	 	16	 Q2: 1
148	 	 	16	 Q1: 1	 	130
149	 	 	22	 Q5: 0	 	99	119
150	 	 	11	 Q2: 1
151	 	 	28	 Q0: 0
152	 	 	10	 Q1: 1
153	 	 	30	 Q4: 1	 	41
154	 	 	31	 Q7: 1	 	95
155	 	 	29	 Q7: 2	 	1
156	 	 	29	 Q6: 0	 	146
157	 	 	12	 Q2: 0
158	 	 	23	 Q2: 1
159	 	 	29	 Q1: 1
160	 	 	40	 Q4: 2	 	123
161	 	 	33	 Q4: 2
162	 	 	36	 Q7: 1	 	27
163	 	 	37	 Q7: 1
164	 	 	36	 Q0: 1	 	102	39	9
165	 	 	37	 Q7: 2
166	 	 	10	 Q3: 0
167	 	 	31	 Q5: 2	 	156	91	110
168	 	 	30	 Q1: 1
169	 	 	28	 Q7: 2
170	 	 	9	 Q0: 0
171	 	 	39	 Q6: 2
172	 	 	27	 Q6: 2	 	26	99
173	 	 	20	 Q2: 0	 	83	129
174	 	 	18	 Q1: 0	 	25
175	 	 	32	 Q6: 0	 	120
176	 	 	38	 Q5: 2
177	 	 	35	 Q6: 1
178	 	 	26	 Q4: 2
179	 	 	40	 Q2: 2
180	 	 	12	 Q3: 2	 	168
181	 	 	11	 Q1: 0
182	 	 	15	 Q3: 0	 	155
183	 	 	21	 Q4: 0
184	 	 	16	 Q3: 1	 	2
185	 	 	27	 Q3: 0
186	 	 	19	 Q2: 2
187	 	 	21	 Q0: 1	 	172
188	 	 	19	 Q3: 0
189	 	 	15	 Q7: 2	 	71
190	 	 	30	 Q6: 0
191	 	 	27	 Q2: 2	 	86	51
192	 	 	36	 Q3: 2	 	115	2
193	 	 	11	 Q4: 0
194	 	 	37	 Q5: 2	 	47	66
195	 	 	26	 Q1: 1	 	120	184	138
196	 	 	28	 Q0: 2	 	69
197	 	 	40	 Q4: 0
198	 	 	28	 Q6: 1	 	140	197	181
199	 	 	24	 Q6: 1	 	85	189
200	 	 	26	 Q2: 1
====================================================================================================================
